clingo version 5.4.0
Reading from getoccurs.lp ...
Solving...
Answer: 1
time(1) time(2) time(3) time(4) time(5) time(6) time(7) time(8) time(9) time(10) time(11) time(12) time(13) time(14) time(15) time(16) time(17) time(18) time(19) occurs(("unstack",constant("a"),constant("g")),1) occurs(("putdown",constant("a")),2) occurs(("unstack",constant("g"),constant("e")),3) occurs(("stack",constant("g"),constant("b")),4) occurs(("pickup",constant("a")),5) occurs(("stack",constant("a"),constant("g")),6) occurs(("unstack",constant("d"),constant("h")),7) occurs(("putdown",constant("d")),8) occurs(("pickup",constant("c")),9) occurs(("stack",constant("c"),constant("a")),10) occurs(("unstack",constant("h"),constant("f")),11) occurs(("stack",constant("h"),constant("c")),12) occurs(("pickup",constant("e")),13) occurs(("stack",constant("e"),constant("h")),14) occurs(("pickup",constant("f")),15) occurs(("stack",constant("f"),constant("e")),16) occurs(("pickup",constant("d")),17) occurs(("stack",constant("d"),constant("f")),18) e_precondition(action(("unstack",constant("a"),constant("g"))),variable(("on",constant("a"),constant("g"))),value(variable(("on",constant("a"),constant("g"))),true)) e_precondition(action(("unstack",constant("a"),constant("g"))),variable(("clear",constant("a"))),value(variable(("clear",constant("a"))),true)) e_precondition(action(("unstack",constant("a"),constant("g"))),variable("handempty"),value(variable("handempty"),true)) e_precondition(action(("putdown",constant("a"))),variable(("holding",constant("a"))),value(variable(("holding",constant("a"))),true)) e_precondition(action(("unstack",constant("g"),constant("e"))),variable(("on",constant("g"),constant("e"))),value(variable(("on",constant("g"),constant("e"))),true)) e_precondition(action(("unstack",constant("g"),constant("e"))),variable(("clear",constant("g"))),value(variable(("clear",constant("g"))),true)) e_precondition(action(("unstack",constant("g"),constant("e"))),variable("handempty"),value(variable("handempty"),true)) e_precondition(action(("stack",constant("g"),constant("b"))),variable(("holding",constant("g"))),value(variable(("holding",constant("g"))),true)) e_precondition(action(("stack",constant("g"),constant("b"))),variable(("clear",constant("b"))),value(variable(("clear",constant("b"))),true)) e_precondition(action(("pickup",constant("a"))),variable(("clear",constant("a"))),value(variable(("clear",constant("a"))),true)) e_precondition(action(("pickup",constant("a"))),variable(("ontable",constant("a"))),value(variable(("ontable",constant("a"))),true)) e_precondition(action(("pickup",constant("a"))),variable("handempty"),value(variable("handempty"),true)) e_precondition(action(("stack",constant("a"),constant("g"))),variable(("holding",constant("a"))),value(variable(("holding",constant("a"))),true)) e_precondition(action(("stack",constant("a"),constant("g"))),variable(("clear",constant("g"))),value(variable(("clear",constant("g"))),true)) e_precondition(action(("unstack",constant("d"),constant("h"))),variable(("on",constant("d"),constant("h"))),value(variable(("on",constant("d"),constant("h"))),true)) e_precondition(action(("unstack",constant("d"),constant("h"))),variable(("clear",constant("d"))),value(variable(("clear",constant("d"))),true)) e_precondition(action(("unstack",constant("d"),constant("h"))),variable("handempty"),value(variable("handempty"),true)) e_precondition(action(("putdown",constant("d"))),variable(("holding",constant("d"))),value(variable(("holding",constant("d"))),true)) e_precondition(action(("pickup",constant("c"))),variable(("clear",constant("c"))),value(variable(("clear",constant("c"))),true)) e_precondition(action(("pickup",constant("c"))),variable(("ontable",constant("c"))),value(variable(("ontable",constant("c"))),true)) e_precondition(action(("pickup",constant("c"))),variable("handempty"),value(variable("handempty"),true)) e_precondition(action(("stack",constant("c"),constant("a"))),variable(("holding",constant("c"))),value(variable(("holding",constant("c"))),true)) e_precondition(action(("stack",constant("c"),constant("a"))),variable(("clear",constant("a"))),value(variable(("clear",constant("a"))),true)) e_precondition(action(("unstack",constant("h"),constant("f"))),variable(("on",constant("h"),constant("f"))),value(variable(("on",constant("h"),constant("f"))),true)) e_precondition(action(("unstack",constant("h"),constant("f"))),variable(("clear",constant("h"))),value(variable(("clear",constant("h"))),true)) e_precondition(action(("unstack",constant("h"),constant("f"))),variable("handempty"),value(variable("handempty"),true)) e_precondition(action(("stack",constant("h"),constant("c"))),variable(("holding",constant("h"))),value(variable(("holding",constant("h"))),true)) e_precondition(action(("stack",constant("h"),constant("c"))),variable(("clear",constant("c"))),value(variable(("clear",constant("c"))),true)) e_precondition(action(("pickup",constant("e"))),variable(("clear",constant("e"))),value(variable(("clear",constant("e"))),true)) e_precondition(action(("pickup",constant("e"))),variable(("ontable",constant("e"))),value(variable(("ontable",constant("e"))),true)) e_precondition(action(("pickup",constant("e"))),variable("handempty"),value(variable("handempty"),true)) e_precondition(action(("stack",constant("e"),constant("h"))),variable(("holding",constant("e"))),value(variable(("holding",constant("e"))),true)) e_precondition(action(("stack",constant("e"),constant("h"))),variable(("clear",constant("h"))),value(variable(("clear",constant("h"))),true)) e_precondition(action(("pickup",constant("f"))),variable(("clear",constant("f"))),value(variable(("clear",constant("f"))),true)) e_precondition(action(("pickup",constant("f"))),variable(("ontable",constant("f"))),value(variable(("ontable",constant("f"))),true)) e_precondition(action(("pickup",constant("f"))),variable("handempty"),value(variable("handempty"),true)) e_precondition(action(("stack",constant("f"),constant("e"))),variable(("holding",constant("f"))),value(variable(("holding",constant("f"))),true)) e_precondition(action(("stack",constant("f"),constant("e"))),variable(("clear",constant("e"))),value(variable(("clear",constant("e"))),true)) e_precondition(action(("pickup",constant("d"))),variable(("clear",constant("d"))),value(variable(("clear",constant("d"))),true)) e_precondition(action(("pickup",constant("d"))),variable(("ontable",constant("d"))),value(variable(("ontable",constant("d"))),true)) e_precondition(action(("pickup",constant("d"))),variable("handempty"),value(variable("handempty"),true)) e_precondition(action(("stack",constant("d"),constant("f"))),variable(("holding",constant("d"))),value(variable(("holding",constant("d"))),true)) e_precondition(action(("stack",constant("d"),constant("f"))),variable(("clear",constant("f"))),value(variable(("clear",constant("f"))),true)) e_postcondition(action(("unstack",constant("a"),constant("g"))),effect(unconditional),variable(("holding",constant("a"))),value(variable(("holding",constant("a"))),true)) e_postcondition(action(("unstack",constant("a"),constant("g"))),effect(unconditional),variable(("clear",constant("g"))),value(variable(("clear",constant("g"))),true)) e_postcondition(action(("unstack",constant("a"),constant("g"))),effect(unconditional),variable(("clear",constant("a"))),value(variable(("clear",constant("a"))),false)) e_postcondition(action(("unstack",constant("a"),constant("g"))),effect(unconditional),variable("handempty"),value(variable("handempty"),false)) e_postcondition(action(("unstack",constant("a"),constant("g"))),effect(unconditional),variable(("on",constant("a"),constant("g"))),value(variable(("on",constant("a"),constant("g"))),false)) e_postcondition(action(("putdown",constant("a"))),effect(unconditional),variable(("holding",constant("a"))),value(variable(("holding",constant("a"))),false)) e_postcondition(action(("putdown",constant("a"))),effect(unconditional),variable(("clear",constant("a"))),value(variable(("clear",constant("a"))),true)) e_postcondition(action(("putdown",constant("a"))),effect(unconditional),variable("handempty"),value(variable("handempty"),true)) e_postcondition(action(("putdown",constant("a"))),effect(unconditional),variable(("ontable",constant("a"))),value(variable(("ontable",constant("a"))),true)) e_postcondition(action(("unstack",constant("g"),constant("e"))),effect(unconditional),variable(("holding",constant("g"))),value(variable(("holding",constant("g"))),true)) e_postcondition(action(("unstack",constant("g"),constant("e"))),effect(unconditional),variable(("clear",constant("e"))),value(variable(("clear",constant("e"))),true)) e_postcondition(action(("unstack",constant("g"),constant("e"))),effect(unconditional),variable(("clear",constant("g"))),value(variable(("clear",constant("g"))),false)) e_postcondition(action(("unstack",constant("g"),constant("e"))),effect(unconditional),variable("handempty"),value(variable("handempty"),false)) e_postcondition(action(("unstack",constant("g"),constant("e"))),effect(unconditional),variable(("on",constant("g"),constant("e"))),value(variable(("on",constant("g"),constant("e"))),false)) e_postcondition(action(("stack",constant("g"),constant("b"))),effect(unconditional),variable(("holding",constant("g"))),value(variable(("holding",constant("g"))),false)) e_postcondition(action(("stack",constant("g"),constant("b"))),effect(unconditional),variable(("clear",constant("b"))),value(variable(("clear",constant("b"))),false)) e_postcondition(action(("stack",constant("g"),constant("b"))),effect(unconditional),variable(("clear",constant("g"))),value(variable(("clear",constant("g"))),true)) e_postcondition(action(("stack",constant("g"),constant("b"))),effect(unconditional),variable("handempty"),value(variable("handempty"),true)) e_postcondition(action(("stack",constant("g"),constant("b"))),effect(unconditional),variable(("on",constant("g"),constant("b"))),value(variable(("on",constant("g"),constant("b"))),true)) e_postcondition(action(("pickup",constant("a"))),effect(unconditional),variable(("ontable",constant("a"))),value(variable(("ontable",constant("a"))),false)) e_postcondition(action(("pickup",constant("a"))),effect(unconditional),variable(("clear",constant("a"))),value(variable(("clear",constant("a"))),false)) e_postcondition(action(("pickup",constant("a"))),effect(unconditional),variable("handempty"),value(variable("handempty"),false)) e_postcondition(action(("pickup",constant("a"))),effect(unconditional),variable(("holding",constant("a"))),value(variable(("holding",constant("a"))),true)) e_postcondition(action(("stack",constant("a"),constant("g"))),effect(unconditional),variable(("holding",constant("a"))),value(variable(("holding",constant("a"))),false)) e_postcondition(action(("stack",constant("a"),constant("g"))),effect(unconditional),variable(("clear",constant("g"))),value(variable(("clear",constant("g"))),false)) e_postcondition(action(("stack",constant("a"),constant("g"))),effect(unconditional),variable(("clear",constant("a"))),value(variable(("clear",constant("a"))),true)) e_postcondition(action(("stack",constant("a"),constant("g"))),effect(unconditional),variable("handempty"),value(variable("handempty"),true)) e_postcondition(action(("stack",constant("a"),constant("g"))),effect(unconditional),variable(("on",constant("a"),constant("g"))),value(variable(("on",constant("a"),constant("g"))),true)) e_postcondition(action(("unstack",constant("d"),constant("h"))),effect(unconditional),variable(("holding",constant("d"))),value(variable(("holding",constant("d"))),true)) e_postcondition(action(("unstack",constant("d"),constant("h"))),effect(unconditional),variable(("clear",constant("h"))),value(variable(("clear",constant("h"))),true)) e_postcondition(action(("unstack",constant("d"),constant("h"))),effect(unconditional),variable(("clear",constant("d"))),value(variable(("clear",constant("d"))),false)) e_postcondition(action(("unstack",constant("d"),constant("h"))),effect(unconditional),variable("handempty"),value(variable("handempty"),false)) e_postcondition(action(("unstack",constant("d"),constant("h"))),effect(unconditional),variable(("on",constant("d"),constant("h"))),value(variable(("on",constant("d"),constant("h"))),false)) e_postcondition(action(("putdown",constant("d"))),effect(unconditional),variable(("holding",constant("d"))),value(variable(("holding",constant("d"))),false)) e_postcondition(action(("putdown",constant("d"))),effect(unconditional),variable(("clear",constant("d"))),value(variable(("clear",constant("d"))),true)) e_postcondition(action(("putdown",constant("d"))),effect(unconditional),variable("handempty"),value(variable("handempty"),true)) e_postcondition(action(("putdown",constant("d"))),effect(unconditional),variable(("ontable",constant("d"))),value(variable(("ontable",constant("d"))),true)) e_postcondition(action(("pickup",constant("c"))),effect(unconditional),variable(("ontable",constant("c"))),value(variable(("ontable",constant("c"))),false)) e_postcondition(action(("pickup",constant("c"))),effect(unconditional),variable(("clear",constant("c"))),value(variable(("clear",constant("c"))),false)) e_postcondition(action(("pickup",constant("c"))),effect(unconditional),variable("handempty"),value(variable("handempty"),false)) e_postcondition(action(("pickup",constant("c"))),effect(unconditional),variable(("holding",constant("c"))),value(variable(("holding",constant("c"))),true)) e_postcondition(action(("stack",constant("c"),constant("a"))),effect(unconditional),variable(("holding",constant("c"))),value(variable(("holding",constant("c"))),false)) e_postcondition(action(("stack",constant("c"),constant("a"))),effect(unconditional),variable(("clear",constant("a"))),value(variable(("clear",constant("a"))),false)) e_postcondition(action(("stack",constant("c"),constant("a"))),effect(unconditional),variable(("clear",constant("c"))),value(variable(("clear",constant("c"))),true)) e_postcondition(action(("stack",constant("c"),constant("a"))),effect(unconditional),variable("handempty"),value(variable("handempty"),true)) e_postcondition(action(("stack",constant("c"),constant("a"))),effect(unconditional),variable(("on",constant("c"),constant("a"))),value(variable(("on",constant("c"),constant("a"))),true)) e_postcondition(action(("unstack",constant("h"),constant("f"))),effect(unconditional),variable(("holding",constant("h"))),value(variable(("holding",constant("h"))),true)) e_postcondition(action(("unstack",constant("h"),constant("f"))),effect(unconditional),variable(("clear",constant("f"))),value(variable(("clear",constant("f"))),true)) e_postcondition(action(("unstack",constant("h"),constant("f"))),effect(unconditional),variable(("clear",constant("h"))),value(variable(("clear",constant("h"))),false)) e_postcondition(action(("unstack",constant("h"),constant("f"))),effect(unconditional),variable("handempty"),value(variable("handempty"),false)) e_postcondition(action(("unstack",constant("h"),constant("f"))),effect(unconditional),variable(("on",constant("h"),constant("f"))),value(variable(("on",constant("h"),constant("f"))),false)) e_postcondition(action(("stack",constant("h"),constant("c"))),effect(unconditional),variable(("holding",constant("h"))),value(variable(("holding",constant("h"))),false)) e_postcondition(action(("stack",constant("h"),constant("c"))),effect(unconditional),variable(("clear",constant("c"))),value(variable(("clear",constant("c"))),false)) e_postcondition(action(("stack",constant("h"),constant("c"))),effect(unconditional),variable(("clear",constant("h"))),value(variable(("clear",constant("h"))),true)) e_postcondition(action(("stack",constant("h"),constant("c"))),effect(unconditional),variable("handempty"),value(variable("handempty"),true)) e_postcondition(action(("stack",constant("h"),constant("c"))),effect(unconditional),variable(("on",constant("h"),constant("c"))),value(variable(("on",constant("h"),constant("c"))),true)) e_postcondition(action(("pickup",constant("e"))),effect(unconditional),variable(("ontable",constant("e"))),value(variable(("ontable",constant("e"))),false)) e_postcondition(action(("pickup",constant("e"))),effect(unconditional),variable(("clear",constant("e"))),value(variable(("clear",constant("e"))),false)) e_postcondition(action(("pickup",constant("e"))),effect(unconditional),variable("handempty"),value(variable("handempty"),false)) e_postcondition(action(("pickup",constant("e"))),effect(unconditional),variable(("holding",constant("e"))),value(variable(("holding",constant("e"))),true)) e_postcondition(action(("stack",constant("e"),constant("h"))),effect(unconditional),variable(("holding",constant("e"))),value(variable(("holding",constant("e"))),false)) e_postcondition(action(("stack",constant("e"),constant("h"))),effect(unconditional),variable(("clear",constant("h"))),value(variable(("clear",constant("h"))),false)) e_postcondition(action(("stack",constant("e"),constant("h"))),effect(unconditional),variable(("clear",constant("e"))),value(variable(("clear",constant("e"))),true)) e_postcondition(action(("stack",constant("e"),constant("h"))),effect(unconditional),variable("handempty"),value(variable("handempty"),true)) e_postcondition(action(("stack",constant("e"),constant("h"))),effect(unconditional),variable(("on",constant("e"),constant("h"))),value(variable(("on",constant("e"),constant("h"))),true)) e_postcondition(action(("pickup",constant("f"))),effect(unconditional),variable(("ontable",constant("f"))),value(variable(("ontable",constant("f"))),false)) e_postcondition(action(("pickup",constant("f"))),effect(unconditional),variable(("clear",constant("f"))),value(variable(("clear",constant("f"))),false)) e_postcondition(action(("pickup",constant("f"))),effect(unconditional),variable("handempty"),value(variable("handempty"),false)) e_postcondition(action(("pickup",constant("f"))),effect(unconditional),variable(("holding",constant("f"))),value(variable(("holding",constant("f"))),true)) e_postcondition(action(("stack",constant("f"),constant("e"))),effect(unconditional),variable(("holding",constant("f"))),value(variable(("holding",constant("f"))),false)) e_postcondition(action(("stack",constant("f"),constant("e"))),effect(unconditional),variable(("clear",constant("e"))),value(variable(("clear",constant("e"))),false)) e_postcondition(action(("stack",constant("f"),constant("e"))),effect(unconditional),variable(("clear",constant("f"))),value(variable(("clear",constant("f"))),true)) e_postcondition(action(("stack",constant("f"),constant("e"))),effect(unconditional),variable("handempty"),value(variable("handempty"),true)) e_postcondition(action(("stack",constant("f"),constant("e"))),effect(unconditional),variable(("on",constant("f"),constant("e"))),value(variable(("on",constant("f"),constant("e"))),true)) e_postcondition(action(("pickup",constant("d"))),effect(unconditional),variable(("ontable",constant("d"))),value(variable(("ontable",constant("d"))),false)) e_postcondition(action(("pickup",constant("d"))),effect(unconditional),variable(("clear",constant("d"))),value(variable(("clear",constant("d"))),false)) e_postcondition(action(("pickup",constant("d"))),effect(unconditional),variable("handempty"),value(variable("handempty"),false)) e_postcondition(action(("pickup",constant("d"))),effect(unconditional),variable(("holding",constant("d"))),value(variable(("holding",constant("d"))),true)) e_postcondition(action(("stack",constant("d"),constant("f"))),effect(unconditional),variable(("holding",constant("d"))),value(variable(("holding",constant("d"))),false)) e_postcondition(action(("stack",constant("d"),constant("f"))),effect(unconditional),variable(("clear",constant("f"))),value(variable(("clear",constant("f"))),false)) e_postcondition(action(("stack",constant("d"),constant("f"))),effect(unconditional),variable(("clear",constant("d"))),value(variable(("clear",constant("d"))),true)) e_postcondition(action(("stack",constant("d"),constant("f"))),effect(unconditional),variable("handempty"),value(variable("handempty"),true)) e_postcondition(action(("stack",constant("d"),constant("f"))),effect(unconditional),variable(("on",constant("d"),constant("f"))),value(variable(("on",constant("d"),constant("f"))),true)) e_action(("unstack",constant("a"),constant("g"))) e_action(("putdown",constant("a"))) e_action(("unstack",constant("g"),constant("e"))) e_action(("stack",constant("g"),constant("b"))) e_action(("pickup",constant("a"))) e_action(("stack",constant("a"),constant("g"))) e_action(("unstack",constant("d"),constant("h"))) e_action(("putdown",constant("d"))) e_action(("pickup",constant("c"))) e_action(("stack",constant("c"),constant("a"))) e_action(("unstack",constant("h"),constant("f"))) e_action(("stack",constant("h"),constant("c"))) e_action(("pickup",constant("e"))) e_action(("stack",constant("e"),constant("h"))) e_action(("pickup",constant("f"))) e_action(("stack",constant("f"),constant("e"))) e_action(("pickup",constant("d"))) e_action(("stack",constant("d"),constant("f")))
SATISFIABLE

Models       : 1
Calls        : 1
Time         : 0.014s (Solving: 0.00s 1st Model: 0.00s Unsat: 0.00s)
CPU Time     : 0.014s
